c File: instances/40_0.05_2.col
c
c Description: Random graph of size 40 vertices and P(0.05) of edges between any two vertices.
p col 40 780
e 1 10
e 1 26
e 1 38
e 2 3
e 2 18
e 3 25
e 3 32
e 3 39
e 4 11
e 5 18
e 5 24
e 6 13
e 6 20
e 7 8
e 8 17
e 9 14
e 10 12
e 10 17
e 10 26
e 10 37
e 10 40
e 11 17
e 14 17
e 14 37
e 15 24
e 16 37
e 17 38
e 19 39
e 21 22
e 22 27
e 22 32
e 22 35
e 22 39
e 23 27
e 23 30
e 23 36
e 25 30
e 25 31
e 26 38
e 27 36
e 27 38
e 28 40
e 30 36
e 32 40
e 33 35